p cnf 601 2039
c p weight -239 1 0
c p weight 239 -1 0
c p weight 243 6.12323399573676603586882014729198302312846062338790031898128063403419218957424163818359375E-17 0
c p weight -243 1 0
c p weight 244 1 0
c p weight -244 1 0
c p weight -241 1 0
c p weight 241 -1 0
c p weight -245 1 0
c p weight 245 -1 0
c p weight -247 1 0
c p weight 247 -1 0
c p weight -250 1 0
c p weight 250 -1 0
c p weight -253 1 0
c p weight 253 -1 0
c p weight -256 1 0
c p weight 256 -1 0
c p weight -259 1 0
c p weight 259 -1 0
c p weight -262 1 0
c p weight 262 -1 0
c p weight -265 1 0
c p weight 265 -1 0
c p weight -268 1 0
c p weight 268 -1 0
c p weight -271 1 0
c p weight 271 -1 0
c p weight -274 1 0
c p weight 274 -1 0
c p weight -277 1 0
c p weight 277 -1 0
c p weight -280 1 0
c p weight 280 -1 0
c p weight -283 1 0
c p weight 283 -1 0
c p weight -286 1 0
c p weight 286 -1 0
c p weight -289 1 0
c p weight 289 -1 0
c p weight -292 1 0
c p weight 292 -1 0
c p weight -295 1 0
c p weight 295 -1 0
c p weight -298 1 0
c p weight 298 -1 0
c p weight -301 1 0
c p weight 301 -1 0
c p weight -304 1 0
c p weight 304 -1 0
c p weight -307 1 0
c p weight 307 -1 0
c p weight -310 1 0
c p weight 310 -1 0
c p weight -313 1 0
c p weight 313 -1 0
c p weight -316 1 0
c p weight 316 -1 0
c p weight -319 1 0
c p weight 319 -1 0
c p weight -322 1 0
c p weight 322 -1 0
c p weight -325 1 0
c p weight 325 -1 0
c p weight -328 1 0
c p weight 328 -1 0
c p weight -331 1 0
c p weight 331 -1 0
c p weight -334 1 0
c p weight 334 -1 0
c p weight -337 1 0
c p weight 337 -1 0
c p weight -340 1 0
c p weight 340 -1 0
c p weight -343 1 0
c p weight 343 -1 0
c p weight -346 1 0
c p weight 346 -1 0
c p weight -349 1 0
c p weight 349 -1 0
c p weight -352 1 0
c p weight 352 -1 0
c p weight -355 1 0
c p weight 355 -1 0
c p weight -358 1 0
c p weight 358 -1 0
c p weight -361 1 0
c p weight 361 -1 0
c p weight -364 1 0
c p weight 364 -1 0
c p weight -367 1 0
c p weight 367 -1 0
c p weight -370 1 0
c p weight 370 -1 0
c p weight -373 1 0
c p weight 373 -1 0
c p weight -376 1 0
c p weight 376 -1 0
c p weight -379 1 0
c p weight 379 -1 0
c p weight -382 1 0
c p weight 382 -1 0
c p weight -385 1 0
c p weight 385 -1 0
c p weight -388 1 0
c p weight 388 -1 0
c p weight -391 1 0
c p weight 391 -1 0
c p weight -394 1 0
c p weight 394 -1 0
c p weight -397 1 0
c p weight 397 -1 0
c p weight -400 1 0
c p weight 400 -1 0
c p weight -403 1 0
c p weight 403 -1 0
c p weight -406 1 0
c p weight 406 -1 0
c p weight -409 1 0
c p weight 409 -1 0
c p weight -412 1 0
c p weight 412 -1 0
c p weight -415 1 0
c p weight 415 -1 0
c p weight -418 1 0
c p weight 418 -1 0
c p weight -421 1 0
c p weight 421 -1 0
c p weight -424 1 0
c p weight 424 -1 0
c p weight -427 1 0
c p weight 427 -1 0
c p weight -430 1 0
c p weight 430 -1 0
c p weight -433 1 0
c p weight 433 -1 0
c p weight -436 1 0
c p weight 436 -1 0
c p weight -439 1 0
c p weight 439 -1 0
c p weight -442 1 0
c p weight 442 -1 0
c p weight -445 1 0
c p weight 445 -1 0
c p weight -448 1 0
c p weight 448 -1 0
c p weight -451 1 0
c p weight 451 -1 0
c p weight -454 1 0
c p weight 454 -1 0
c p weight -457 1 0
c p weight 457 -1 0
c p weight -460 1 0
c p weight 460 -1 0
c p weight -463 1 0
c p weight 463 -1 0
c p weight -466 1 0
c p weight 466 -1 0
c p weight -469 1 0
c p weight 469 -1 0
c p weight -472 1 0
c p weight 472 -1 0
c p weight -475 1 0
c p weight 475 -1 0
c p weight -478 1 0
c p weight 478 -1 0
c p weight -481 1 0
c p weight 481 -1 0
c p weight -484 1 0
c p weight 484 -1 0
c p weight -487 1 0
c p weight 487 -1 0
c p weight -490 1 0
c p weight 490 -1 0
c p weight -493 1 0
c p weight 493 -1 0
c p weight -496 1 0
c p weight 496 -1 0
c p weight -499 1 0
c p weight 499 -1 0
c p weight -502 1 0
c p weight 502 -1 0
c p weight -505 1 0
c p weight 505 -1 0
c p weight -508 1 0
c p weight 508 -1 0
c p weight -511 1 0
c p weight 511 -1 0
c p weight -514 1 0
c p weight 514 -1 0
c p weight -517 1 0
c p weight 517 -1 0
c p weight -520 1 0
c p weight 520 -1 0
c p weight -523 1 0
c p weight 523 -1 0
c p weight -526 1 0
c p weight 526 -1 0
c p weight -529 1 0
c p weight 529 -1 0
c p weight -532 1 0
c p weight 532 -1 0
c p weight -535 1 0
c p weight 535 -1 0
c p weight -538 1 0
c p weight 538 -1 0
c p weight -541 1 0
c p weight 541 -1 0
c p weight -544 1 0
c p weight 544 -1 0
c p weight -547 1 0
c p weight 547 -1 0
c p weight -550 1 0
c p weight 550 -1 0
c p weight -553 1 0
c p weight 553 -1 0
c p weight -556 1 0
c p weight 556 -1 0
c p weight -559 1 0
c p weight 559 -1 0
c p weight -562 1 0
c p weight 562 -1 0
c p weight -565 1 0
c p weight 565 -1 0
c p weight -568 1 0
c p weight 568 -1 0
c p weight -571 1 0
c p weight 571 -1 0
c p weight -574 1 0
c p weight 574 -1 0
c p weight -577 1 0
c p weight 577 -1 0
c p weight -580 1 0
c p weight 580 -1 0
c p weight -583 1 0
c p weight 583 -1 0
c p weight -586 1 0
c p weight 586 -1 0
c p weight -589 1 0
c p weight 589 -1 0
c p weight -592 1 0
c p weight 592 -1 0
c p weight -595 1 0
c p weight 595 -1 0
c p weight -598 1 0
c p weight 598 -1 0
c p weight 601 0.5 0
c p weight -601 1 0
601 0
-237 0
-235 0
-233 0
-231 0
-229 0
-227 0
-225 0
-223 0
-221 0
-219 0
-217 0
-215 0
-213 0
-211 0
-209 0
-207 0
-205 0
-203 0
-201 0
-199 0
-197 0
-195 0
-193 0
-191 0
-189 0
-187 0
-185 0
-183 0
-181 0
-179 0
-177 0
-175 0
-173 0
-171 0
-169 0
-167 0
-165 0
-163 0
-161 0
-159 0
-157 0
-155 0
-153 0
-151 0
-149 0
-147 0
-145 0
-143 0
-141 0
-139 0
-137 0
-135 0
-133 0
-131 0
-129 0
-127 0
-125 0
-123 0
-121 0
-119 0
-117 0
-115 0
-113 0
-111 0
-109 0
-107 0
-105 0
-103 0
-101 0
-99 0
-97 0
-95 0
-93 0
-91 0
-89 0
-87 0
-85 0
-83 0
-81 0
-79 0
-77 0
-75 0
-73 0
-71 0
-69 0
-67 0
-65 0
-63 0
-61 0
-59 0
-57 0
-55 0
-53 0
-51 0
-49 0
-47 0
-45 0
-43 0
-41 0
-39 0
-37 0
-35 0
-33 0
-31 0
-29 0
-27 0
-25 0
-23 0
-21 0
-19 0
-17 0
-15 0
-13 0
-11 0
-9 0
-7 0
-5 0
-3 0
-1 0
-239 237 0
-239 238 0
239 -237 -238 0
240 237 -238 0
240 -237 238 0
-240 237 238 0
-240 -237 -238 0
-241 242 0
-241 240 0
-241 -237 0
241 -242 237 -240 0
242 -237 240 0
-242 237 240 0
-243 240 0
242 -243 -237 0
-242 -243 237 0
242 243 237 -240 0
-242 243 -237 -240 0
-244 240 0
242 -244 237 0
-242 -244 -237 0
242 244 -237 -240 0
-242 244 237 -240 0
-245 242 0
-245 240 0
245 -242 -240 0
246 242 -240 0
246 -242 240 0
-246 242 240 0
-246 -242 -240 0
-247 242 0
-247 236 0
-247 235 -246 0
-247 -235 246 0
247 -242 235 246 -236 0
247 -242 -235 -246 -236 0
249 242 -235 0
249 -242 235 0
-249 242 235 0
-249 -242 -235 0
248 246 -236 0
248 -246 236 0
-248 246 236 0
-248 -246 -236 0
-250 249 0
-250 234 0
-250 233 -236 0
-250 -233 236 0
250 -249 233 236 -234 0
250 -249 -233 -236 -234 0
252 249 -233 0
252 -249 233 0
-252 249 233 0
-252 -249 -233 0
251 236 -234 0
251 -236 234 0
-251 236 234 0
-251 -236 -234 0
-253 252 0
-253 232 0
-253 231 -234 0
-253 -231 234 0
253 -252 231 234 -232 0
253 -252 -231 -234 -232 0
255 252 -231 0
255 -252 231 0
-255 252 231 0
-255 -252 -231 0
254 234 -232 0
254 -234 232 0
-254 234 232 0
-254 -234 -232 0
-256 255 0
-256 230 0
-256 229 -232 0
-256 -229 232 0
256 -255 229 232 -230 0
256 -255 -229 -232 -230 0
258 255 -229 0
258 -255 229 0
-258 255 229 0
-258 -255 -229 0
257 232 -230 0
257 -232 230 0
-257 232 230 0
-257 -232 -230 0
-259 258 0
-259 228 0
-259 227 -230 0
-259 -227 230 0
259 -258 227 230 -228 0
259 -258 -227 -230 -228 0
261 258 -227 0
261 -258 227 0
-261 258 227 0
-261 -258 -227 0
260 230 -228 0
260 -230 228 0
-260 230 228 0
-260 -230 -228 0
-262 261 0
-262 226 0
-262 225 -228 0
-262 -225 228 0
262 -261 225 228 -226 0
262 -261 -225 -228 -226 0
264 261 -225 0
264 -261 225 0
-264 261 225 0
-264 -261 -225 0
263 228 -226 0
263 -228 226 0
-263 228 226 0
-263 -228 -226 0
-265 264 0
-265 224 0
-265 223 -226 0
-265 -223 226 0
265 -264 223 226 -224 0
265 -264 -223 -226 -224 0
267 264 -223 0
267 -264 223 0
-267 264 223 0
-267 -264 -223 0
266 226 -224 0
266 -226 224 0
-266 226 224 0
-266 -226 -224 0
-268 267 0
-268 222 0
-268 221 -224 0
-268 -221 224 0
268 -267 221 224 -222 0
268 -267 -221 -224 -222 0
270 267 -221 0
270 -267 221 0
-270 267 221 0
-270 -267 -221 0
269 224 -222 0
269 -224 222 0
-269 224 222 0
-269 -224 -222 0
-271 270 0
-271 220 0
-271 219 -222 0
-271 -219 222 0
271 -270 219 222 -220 0
271 -270 -219 -222 -220 0
273 270 -219 0
273 -270 219 0
-273 270 219 0
-273 -270 -219 0
272 222 -220 0
272 -222 220 0
-272 222 220 0
-272 -222 -220 0
-274 273 0
-274 218 0
-274 217 -220 0
-274 -217 220 0
274 -273 217 220 -218 0
274 -273 -217 -220 -218 0
276 273 -217 0
276 -273 217 0
-276 273 217 0
-276 -273 -217 0
275 220 -218 0
275 -220 218 0
-275 220 218 0
-275 -220 -218 0
-277 276 0
-277 216 0
-277 215 -218 0
-277 -215 218 0
277 -276 215 218 -216 0
277 -276 -215 -218 -216 0
279 276 -215 0
279 -276 215 0
-279 276 215 0
-279 -276 -215 0
278 218 -216 0
278 -218 216 0
-278 218 216 0
-278 -218 -216 0
-280 279 0
-280 214 0
-280 213 -216 0
-280 -213 216 0
280 -279 213 216 -214 0
280 -279 -213 -216 -214 0
282 279 -213 0
282 -279 213 0
-282 279 213 0
-282 -279 -213 0
281 216 -214 0
281 -216 214 0
-281 216 214 0
-281 -216 -214 0
-283 282 0
-283 212 0
-283 211 -214 0
-283 -211 214 0
283 -282 211 214 -212 0
283 -282 -211 -214 -212 0
285 282 -211 0
285 -282 211 0
-285 282 211 0
-285 -282 -211 0
284 214 -212 0
284 -214 212 0
-284 214 212 0
-284 -214 -212 0
-286 285 0
-286 210 0
-286 209 -212 0
-286 -209 212 0
286 -285 209 212 -210 0
286 -285 -209 -212 -210 0
288 285 -209 0
288 -285 209 0
-288 285 209 0
-288 -285 -209 0
287 212 -210 0
287 -212 210 0
-287 212 210 0
-287 -212 -210 0
-289 288 0
-289 208 0
-289 207 -210 0
-289 -207 210 0
289 -288 207 210 -208 0
289 -288 -207 -210 -208 0
291 288 -207 0
291 -288 207 0
-291 288 207 0
-291 -288 -207 0
290 210 -208 0
290 -210 208 0
-290 210 208 0
-290 -210 -208 0
-292 291 0
-292 206 0
-292 205 -208 0
-292 -205 208 0
292 -291 205 208 -206 0
292 -291 -205 -208 -206 0
294 291 -205 0
294 -291 205 0
-294 291 205 0
-294 -291 -205 0
293 208 -206 0
293 -208 206 0
-293 208 206 0
-293 -208 -206 0
-295 294 0
-295 204 0
-295 203 -206 0
-295 -203 206 0
295 -294 203 206 -204 0
295 -294 -203 -206 -204 0
297 294 -203 0
297 -294 203 0
-297 294 203 0
-297 -294 -203 0
296 206 -204 0
296 -206 204 0
-296 206 204 0
-296 -206 -204 0
-298 297 0
-298 202 0
-298 201 -204 0
-298 -201 204 0
298 -297 201 204 -202 0
298 -297 -201 -204 -202 0
300 297 -201 0
300 -297 201 0
-300 297 201 0
-300 -297 -201 0
299 204 -202 0
299 -204 202 0
-299 204 202 0
-299 -204 -202 0
-301 300 0
-301 200 0
-301 199 -202 0
-301 -199 202 0
301 -300 199 202 -200 0
301 -300 -199 -202 -200 0
303 300 -199 0
303 -300 199 0
-303 300 199 0
-303 -300 -199 0
302 202 -200 0
302 -202 200 0
-302 202 200 0
-302 -202 -200 0
-304 303 0
-304 198 0
-304 197 -200 0
-304 -197 200 0
304 -303 197 200 -198 0
304 -303 -197 -200 -198 0
306 303 -197 0
306 -303 197 0
-306 303 197 0
-306 -303 -197 0
305 200 -198 0
305 -200 198 0
-305 200 198 0
-305 -200 -198 0
-307 306 0
-307 196 0
-307 195 -198 0
-307 -195 198 0
307 -306 195 198 -196 0
307 -306 -195 -198 -196 0
309 306 -195 0
309 -306 195 0
-309 306 195 0
-309 -306 -195 0
308 198 -196 0
308 -198 196 0
-308 198 196 0
-308 -198 -196 0
-310 309 0
-310 194 0
-310 193 -196 0
-310 -193 196 0
310 -309 193 196 -194 0
310 -309 -193 -196 -194 0
312 309 -193 0
312 -309 193 0
-312 309 193 0
-312 -309 -193 0
311 196 -194 0
311 -196 194 0
-311 196 194 0
-311 -196 -194 0
-313 312 0
-313 192 0
-313 191 -194 0
-313 -191 194 0
313 -312 191 194 -192 0
313 -312 -191 -194 -192 0
315 312 -191 0
315 -312 191 0
-315 312 191 0
-315 -312 -191 0
314 194 -192 0
314 -194 192 0
-314 194 192 0
-314 -194 -192 0
-316 315 0
-316 190 0
-316 189 -192 0
-316 -189 192 0
316 -315 189 192 -190 0
316 -315 -189 -192 -190 0
318 315 -189 0
318 -315 189 0
-318 315 189 0
-318 -315 -189 0
317 192 -190 0
317 -192 190 0
-317 192 190 0
-317 -192 -190 0
-319 318 0
-319 188 0
-319 187 -190 0
-319 -187 190 0
319 -318 187 190 -188 0
319 -318 -187 -190 -188 0
321 318 -187 0
321 -318 187 0
-321 318 187 0
-321 -318 -187 0
320 190 -188 0
320 -190 188 0
-320 190 188 0
-320 -190 -188 0
-322 321 0
-322 186 0
-322 185 -188 0
-322 -185 188 0
322 -321 185 188 -186 0
322 -321 -185 -188 -186 0
324 321 -185 0
324 -321 185 0
-324 321 185 0
-324 -321 -185 0
323 188 -186 0
323 -188 186 0
-323 188 186 0
-323 -188 -186 0
-325 324 0
-325 184 0
-325 183 -186 0
-325 -183 186 0
325 -324 183 186 -184 0
325 -324 -183 -186 -184 0
327 324 -183 0
327 -324 183 0
-327 324 183 0
-327 -324 -183 0
326 186 -184 0
326 -186 184 0
-326 186 184 0
-326 -186 -184 0
-328 327 0
-328 182 0
-328 181 -184 0
-328 -181 184 0
328 -327 181 184 -182 0
328 -327 -181 -184 -182 0
330 327 -181 0
330 -327 181 0
-330 327 181 0
-330 -327 -181 0
329 184 -182 0
329 -184 182 0
-329 184 182 0
-329 -184 -182 0
-331 330 0
-331 180 0
-331 179 -182 0
-331 -179 182 0
331 -330 179 182 -180 0
331 -330 -179 -182 -180 0
333 330 -179 0
333 -330 179 0
-333 330 179 0
-333 -330 -179 0
332 182 -180 0
332 -182 180 0
-332 182 180 0
-332 -182 -180 0
-334 333 0
-334 178 0
-334 177 -180 0
-334 -177 180 0
334 -333 177 180 -178 0
334 -333 -177 -180 -178 0
336 333 -177 0
336 -333 177 0
-336 333 177 0
-336 -333 -177 0
335 180 -178 0
335 -180 178 0
-335 180 178 0
-335 -180 -178 0
-337 336 0
-337 176 0
-337 175 -178 0
-337 -175 178 0
337 -336 175 178 -176 0
337 -336 -175 -178 -176 0
339 336 -175 0
339 -336 175 0
-339 336 175 0
-339 -336 -175 0
338 178 -176 0
338 -178 176 0
-338 178 176 0
-338 -178 -176 0
-340 339 0
-340 174 0
-340 173 -176 0
-340 -173 176 0
340 -339 173 176 -174 0
340 -339 -173 -176 -174 0
342 339 -173 0
342 -339 173 0
-342 339 173 0
-342 -339 -173 0
341 176 -174 0
341 -176 174 0
-341 176 174 0
-341 -176 -174 0
-343 342 0
-343 172 0
-343 171 -174 0
-343 -171 174 0
343 -342 171 174 -172 0
343 -342 -171 -174 -172 0
345 342 -171 0
345 -342 171 0
-345 342 171 0
-345 -342 -171 0
344 174 -172 0
344 -174 172 0
-344 174 172 0
-344 -174 -172 0
-346 345 0
-346 170 0
-346 169 -172 0
-346 -169 172 0
346 -345 169 172 -170 0
346 -345 -169 -172 -170 0
348 345 -169 0
348 -345 169 0
-348 345 169 0
-348 -345 -169 0
347 172 -170 0
347 -172 170 0
-347 172 170 0
-347 -172 -170 0
-349 348 0
-349 168 0
-349 167 -170 0
-349 -167 170 0
349 -348 167 170 -168 0
349 -348 -167 -170 -168 0
351 348 -167 0
351 -348 167 0
-351 348 167 0
-351 -348 -167 0
350 170 -168 0
350 -170 168 0
-350 170 168 0
-350 -170 -168 0
-352 351 0
-352 166 0
-352 165 -168 0
-352 -165 168 0
352 -351 165 168 -166 0
352 -351 -165 -168 -166 0
354 351 -165 0
354 -351 165 0
-354 351 165 0
-354 -351 -165 0
353 168 -166 0
353 -168 166 0
-353 168 166 0
-353 -168 -166 0
-355 354 0
-355 164 0
-355 163 -166 0
-355 -163 166 0
355 -354 163 166 -164 0
355 -354 -163 -166 -164 0
357 354 -163 0
357 -354 163 0
-357 354 163 0
-357 -354 -163 0
356 166 -164 0
356 -166 164 0
-356 166 164 0
-356 -166 -164 0
-358 357 0
-358 162 0
-358 161 -164 0
-358 -161 164 0
358 -357 161 164 -162 0
358 -357 -161 -164 -162 0
360 357 -161 0
360 -357 161 0
-360 357 161 0
-360 -357 -161 0
359 164 -162 0
359 -164 162 0
-359 164 162 0
-359 -164 -162 0
-361 360 0
-361 160 0
-361 159 -162 0
-361 -159 162 0
361 -360 159 162 -160 0
361 -360 -159 -162 -160 0
363 360 -159 0
363 -360 159 0
-363 360 159 0
-363 -360 -159 0
362 162 -160 0
362 -162 160 0
-362 162 160 0
-362 -162 -160 0
-364 363 0
-364 158 0
-364 157 -160 0
-364 -157 160 0
364 -363 157 160 -158 0
364 -363 -157 -160 -158 0
366 363 -157 0
366 -363 157 0
-366 363 157 0
-366 -363 -157 0
365 160 -158 0
365 -160 158 0
-365 160 158 0
-365 -160 -158 0
-367 366 0
-367 156 0
-367 155 -158 0
-367 -155 158 0
367 -366 155 158 -156 0
367 -366 -155 -158 -156 0
369 366 -155 0
369 -366 155 0
-369 366 155 0
-369 -366 -155 0
368 158 -156 0
368 -158 156 0
-368 158 156 0
-368 -158 -156 0
-370 369 0
-370 154 0
-370 153 -156 0
-370 -153 156 0
370 -369 153 156 -154 0
370 -369 -153 -156 -154 0
372 369 -153 0
372 -369 153 0
-372 369 153 0
-372 -369 -153 0
371 156 -154 0
371 -156 154 0
-371 156 154 0
-371 -156 -154 0
-373 372 0
-373 152 0
-373 151 -154 0
-373 -151 154 0
373 -372 151 154 -152 0
373 -372 -151 -154 -152 0
375 372 -151 0
375 -372 151 0
-375 372 151 0
-375 -372 -151 0
374 154 -152 0
374 -154 152 0
-374 154 152 0
-374 -154 -152 0
-376 375 0
-376 150 0
-376 149 -152 0
-376 -149 152 0
376 -375 149 152 -150 0
376 -375 -149 -152 -150 0
378 375 -149 0
378 -375 149 0
-378 375 149 0
-378 -375 -149 0
377 152 -150 0
377 -152 150 0
-377 152 150 0
-377 -152 -150 0
-379 378 0
-379 148 0
-379 147 -150 0
-379 -147 150 0
379 -378 147 150 -148 0
379 -378 -147 -150 -148 0
381 378 -147 0
381 -378 147 0
-381 378 147 0
-381 -378 -147 0
380 150 -148 0
380 -150 148 0
-380 150 148 0
-380 -150 -148 0
-382 381 0
-382 146 0
-382 145 -148 0
-382 -145 148 0
382 -381 145 148 -146 0
382 -381 -145 -148 -146 0
384 381 -145 0
384 -381 145 0
-384 381 145 0
-384 -381 -145 0
383 148 -146 0
383 -148 146 0
-383 148 146 0
-383 -148 -146 0
-385 384 0
-385 144 0
-385 143 -146 0
-385 -143 146 0
385 -384 143 146 -144 0
385 -384 -143 -146 -144 0
387 384 -143 0
387 -384 143 0
-387 384 143 0
-387 -384 -143 0
386 146 -144 0
386 -146 144 0
-386 146 144 0
-386 -146 -144 0
-388 387 0
-388 142 0
-388 141 -144 0
-388 -141 144 0
388 -387 141 144 -142 0
388 -387 -141 -144 -142 0
390 387 -141 0
390 -387 141 0
-390 387 141 0
-390 -387 -141 0
389 144 -142 0
389 -144 142 0
-389 144 142 0
-389 -144 -142 0
-391 390 0
-391 140 0
-391 139 -142 0
-391 -139 142 0
391 -390 139 142 -140 0
391 -390 -139 -142 -140 0
393 390 -139 0
393 -390 139 0
-393 390 139 0
-393 -390 -139 0
392 142 -140 0
392 -142 140 0
-392 142 140 0
-392 -142 -140 0
-394 393 0
-394 138 0
-394 137 -140 0
-394 -137 140 0
394 -393 137 140 -138 0
394 -393 -137 -140 -138 0
396 393 -137 0
396 -393 137 0
-396 393 137 0
-396 -393 -137 0
395 140 -138 0
395 -140 138 0
-395 140 138 0
-395 -140 -138 0
-397 396 0
-397 136 0
-397 135 -138 0
-397 -135 138 0
397 -396 135 138 -136 0
397 -396 -135 -138 -136 0
399 396 -135 0
399 -396 135 0
-399 396 135 0
-399 -396 -135 0
398 138 -136 0
398 -138 136 0
-398 138 136 0
-398 -138 -136 0
-400 399 0
-400 134 0
-400 133 -136 0
-400 -133 136 0
400 -399 133 136 -134 0
400 -399 -133 -136 -134 0
402 399 -133 0
402 -399 133 0
-402 399 133 0
-402 -399 -133 0
401 136 -134 0
401 -136 134 0
-401 136 134 0
-401 -136 -134 0
-403 402 0
-403 132 0
-403 131 -134 0
-403 -131 134 0
403 -402 131 134 -132 0
403 -402 -131 -134 -132 0
405 402 -131 0
405 -402 131 0
-405 402 131 0
-405 -402 -131 0
404 134 -132 0
404 -134 132 0
-404 134 132 0
-404 -134 -132 0
-406 405 0
-406 130 0
-406 129 -132 0
-406 -129 132 0
406 -405 129 132 -130 0
406 -405 -129 -132 -130 0
408 405 -129 0
408 -405 129 0
-408 405 129 0
-408 -405 -129 0
407 132 -130 0
407 -132 130 0
-407 132 130 0
-407 -132 -130 0
-409 408 0
-409 128 0
-409 127 -130 0
-409 -127 130 0
409 -408 127 130 -128 0
409 -408 -127 -130 -128 0
411 408 -127 0
411 -408 127 0
-411 408 127 0
-411 -408 -127 0
410 130 -128 0
410 -130 128 0
-410 130 128 0
-410 -130 -128 0
-412 411 0
-412 126 0
-412 125 -128 0
-412 -125 128 0
412 -411 125 128 -126 0
412 -411 -125 -128 -126 0
414 411 -125 0
414 -411 125 0
-414 411 125 0
-414 -411 -125 0
413 128 -126 0
413 -128 126 0
-413 128 126 0
-413 -128 -126 0
-415 414 0
-415 124 0
-415 123 -126 0
-415 -123 126 0
415 -414 123 126 -124 0
415 -414 -123 -126 -124 0
417 414 -123 0
417 -414 123 0
-417 414 123 0
-417 -414 -123 0
416 126 -124 0
416 -126 124 0
-416 126 124 0
-416 -126 -124 0
-418 417 0
-418 122 0
-418 121 -124 0
-418 -121 124 0
418 -417 121 124 -122 0
418 -417 -121 -124 -122 0
420 417 -121 0
420 -417 121 0
-420 417 121 0
-420 -417 -121 0
419 124 -122 0
419 -124 122 0
-419 124 122 0
-419 -124 -122 0
-421 420 0
-421 120 0
-421 119 -122 0
-421 -119 122 0
421 -420 119 122 -120 0
421 -420 -119 -122 -120 0
423 420 -119 0
423 -420 119 0
-423 420 119 0
-423 -420 -119 0
422 122 -120 0
422 -122 120 0
-422 122 120 0
-422 -122 -120 0
-424 423 0
-424 118 0
-424 117 -120 0
-424 -117 120 0
424 -423 117 120 -118 0
424 -423 -117 -120 -118 0
426 423 -117 0
426 -423 117 0
-426 423 117 0
-426 -423 -117 0
425 120 -118 0
425 -120 118 0
-425 120 118 0
-425 -120 -118 0
-427 426 0
-427 116 0
-427 115 -118 0
-427 -115 118 0
427 -426 115 118 -116 0
427 -426 -115 -118 -116 0
429 426 -115 0
429 -426 115 0
-429 426 115 0
-429 -426 -115 0
428 118 -116 0
428 -118 116 0
-428 118 116 0
-428 -118 -116 0
-430 429 0
-430 114 0
-430 113 -116 0
-430 -113 116 0
430 -429 113 116 -114 0
430 -429 -113 -116 -114 0
432 429 -113 0
432 -429 113 0
-432 429 113 0
-432 -429 -113 0
431 116 -114 0
431 -116 114 0
-431 116 114 0
-431 -116 -114 0
-433 432 0
-433 112 0
-433 111 -114 0
-433 -111 114 0
433 -432 111 114 -112 0
433 -432 -111 -114 -112 0
435 432 -111 0
435 -432 111 0
-435 432 111 0
-435 -432 -111 0
434 114 -112 0
434 -114 112 0
-434 114 112 0
-434 -114 -112 0
-436 435 0
-436 110 0
-436 109 -112 0
-436 -109 112 0
436 -435 109 112 -110 0
436 -435 -109 -112 -110 0
438 435 -109 0
438 -435 109 0
-438 435 109 0
-438 -435 -109 0
437 112 -110 0
437 -112 110 0
-437 112 110 0
-437 -112 -110 0
-439 438 0
-439 108 0
-439 107 -110 0
-439 -107 110 0
439 -438 107 110 -108 0
439 -438 -107 -110 -108 0
441 438 -107 0
441 -438 107 0
-441 438 107 0
-441 -438 -107 0
440 110 -108 0
440 -110 108 0
-440 110 108 0
-440 -110 -108 0
-442 441 0
-442 106 0
-442 105 -108 0
-442 -105 108 0
442 -441 105 108 -106 0
442 -441 -105 -108 -106 0
444 441 -105 0
444 -441 105 0
-444 441 105 0
-444 -441 -105 0
443 108 -106 0
443 -108 106 0
-443 108 106 0
-443 -108 -106 0
-445 444 0
-445 104 0
-445 103 -106 0
-445 -103 106 0
445 -444 103 106 -104 0
445 -444 -103 -106 -104 0
447 444 -103 0
447 -444 103 0
-447 444 103 0
-447 -444 -103 0
446 106 -104 0
446 -106 104 0
-446 106 104 0
-446 -106 -104 0
-448 447 0
-448 102 0
-448 101 -104 0
-448 -101 104 0
448 -447 101 104 -102 0
448 -447 -101 -104 -102 0
450 447 -101 0
450 -447 101 0
-450 447 101 0
-450 -447 -101 0
449 104 -102 0
449 -104 102 0
-449 104 102 0
-449 -104 -102 0
-451 450 0
-451 100 0
-451 99 -102 0
-451 -99 102 0
451 -450 99 102 -100 0
451 -450 -99 -102 -100 0
453 450 -99 0
453 -450 99 0
-453 450 99 0
-453 -450 -99 0
452 102 -100 0
452 -102 100 0
-452 102 100 0
-452 -102 -100 0
-454 453 0
-454 98 0
-454 97 -100 0
-454 -97 100 0
454 -453 97 100 -98 0
454 -453 -97 -100 -98 0
456 453 -97 0
456 -453 97 0
-456 453 97 0
-456 -453 -97 0
455 100 -98 0
455 -100 98 0
-455 100 98 0
-455 -100 -98 0
-457 456 0
-457 96 0
-457 95 -98 0
-457 -95 98 0
457 -456 95 98 -96 0
457 -456 -95 -98 -96 0
459 456 -95 0
459 -456 95 0
-459 456 95 0
-459 -456 -95 0
458 98 -96 0
458 -98 96 0
-458 98 96 0
-458 -98 -96 0
-460 459 0
-460 94 0
-460 93 -96 0
-460 -93 96 0
460 -459 93 96 -94 0
460 -459 -93 -96 -94 0
462 459 -93 0
462 -459 93 0
-462 459 93 0
-462 -459 -93 0
461 96 -94 0
461 -96 94 0
-461 96 94 0
-461 -96 -94 0
-463 462 0
-463 92 0
-463 91 -94 0
-463 -91 94 0
463 -462 91 94 -92 0
463 -462 -91 -94 -92 0
465 462 -91 0
465 -462 91 0
-465 462 91 0
-465 -462 -91 0
464 94 -92 0
464 -94 92 0
-464 94 92 0
-464 -94 -92 0
-466 465 0
-466 90 0
-466 89 -92 0
-466 -89 92 0
466 -465 89 92 -90 0
466 -465 -89 -92 -90 0
468 465 -89 0
468 -465 89 0
-468 465 89 0
-468 -465 -89 0
467 92 -90 0
467 -92 90 0
-467 92 90 0
-467 -92 -90 0
-469 468 0
-469 88 0
-469 87 -90 0
-469 -87 90 0
469 -468 87 90 -88 0
469 -468 -87 -90 -88 0
471 468 -87 0
471 -468 87 0
-471 468 87 0
-471 -468 -87 0
470 90 -88 0
470 -90 88 0
-470 90 88 0
-470 -90 -88 0
-472 471 0
-472 86 0
-472 85 -88 0
-472 -85 88 0
472 -471 85 88 -86 0
472 -471 -85 -88 -86 0
474 471 -85 0
474 -471 85 0
-474 471 85 0
-474 -471 -85 0
473 88 -86 0
473 -88 86 0
-473 88 86 0
-473 -88 -86 0
-475 474 0
-475 84 0
-475 83 -86 0
-475 -83 86 0
475 -474 83 86 -84 0
475 -474 -83 -86 -84 0
477 474 -83 0
477 -474 83 0
-477 474 83 0
-477 -474 -83 0
476 86 -84 0
476 -86 84 0
-476 86 84 0
-476 -86 -84 0
-478 477 0
-478 82 0
-478 81 -84 0
-478 -81 84 0
478 -477 81 84 -82 0
478 -477 -81 -84 -82 0
480 477 -81 0
480 -477 81 0
-480 477 81 0
-480 -477 -81 0
479 84 -82 0
479 -84 82 0
-479 84 82 0
-479 -84 -82 0
-481 480 0
-481 80 0
-481 79 -82 0
-481 -79 82 0
481 -480 79 82 -80 0
481 -480 -79 -82 -80 0
483 480 -79 0
483 -480 79 0
-483 480 79 0
-483 -480 -79 0
482 82 -80 0
482 -82 80 0
-482 82 80 0
-482 -82 -80 0
-484 483 0
-484 78 0
-484 77 -80 0
-484 -77 80 0
484 -483 77 80 -78 0
484 -483 -77 -80 -78 0
486 483 -77 0
486 -483 77 0
-486 483 77 0
-486 -483 -77 0
485 80 -78 0
485 -80 78 0
-485 80 78 0
-485 -80 -78 0
-487 486 0
-487 76 0
-487 75 -78 0
-487 -75 78 0
487 -486 75 78 -76 0
487 -486 -75 -78 -76 0
489 486 -75 0
489 -486 75 0
-489 486 75 0
-489 -486 -75 0
488 78 -76 0
488 -78 76 0
-488 78 76 0
-488 -78 -76 0
-490 489 0
-490 74 0
-490 73 -76 0
-490 -73 76 0
490 -489 73 76 -74 0
490 -489 -73 -76 -74 0
492 489 -73 0
492 -489 73 0
-492 489 73 0
-492 -489 -73 0
491 76 -74 0
491 -76 74 0
-491 76 74 0
-491 -76 -74 0
-493 492 0
-493 72 0
-493 71 -74 0
-493 -71 74 0
493 -492 71 74 -72 0
493 -492 -71 -74 -72 0
495 492 -71 0
495 -492 71 0
-495 492 71 0
-495 -492 -71 0
494 74 -72 0
494 -74 72 0
-494 74 72 0
-494 -74 -72 0
-496 495 0
-496 70 0
-496 69 -72 0
-496 -69 72 0
496 -495 69 72 -70 0
496 -495 -69 -72 -70 0
498 495 -69 0
498 -495 69 0
-498 495 69 0
-498 -495 -69 0
497 72 -70 0
497 -72 70 0
-497 72 70 0
-497 -72 -70 0
-499 498 0
-499 68 0
-499 67 -70 0
-499 -67 70 0
499 -498 67 70 -68 0
499 -498 -67 -70 -68 0
501 498 -67 0
501 -498 67 0
-501 498 67 0
-501 -498 -67 0
500 70 -68 0
500 -70 68 0
-500 70 68 0
-500 -70 -68 0
-502 501 0
-502 66 0
-502 65 -68 0
-502 -65 68 0
502 -501 65 68 -66 0
502 -501 -65 -68 -66 0
504 501 -65 0
504 -501 65 0
-504 501 65 0
-504 -501 -65 0
503 68 -66 0
503 -68 66 0
-503 68 66 0
-503 -68 -66 0
-505 504 0
-505 64 0
-505 63 -66 0
-505 -63 66 0
505 -504 63 66 -64 0
505 -504 -63 -66 -64 0
507 504 -63 0
507 -504 63 0
-507 504 63 0
-507 -504 -63 0
506 66 -64 0
506 -66 64 0
-506 66 64 0
-506 -66 -64 0
-508 507 0
-508 62 0
-508 61 -64 0
-508 -61 64 0
508 -507 61 64 -62 0
508 -507 -61 -64 -62 0
510 507 -61 0
510 -507 61 0
-510 507 61 0
-510 -507 -61 0
509 64 -62 0
509 -64 62 0
-509 64 62 0
-509 -64 -62 0
-511 510 0
-511 60 0
-511 59 -62 0
-511 -59 62 0
511 -510 59 62 -60 0
511 -510 -59 -62 -60 0
513 510 -59 0
513 -510 59 0
-513 510 59 0
-513 -510 -59 0
512 62 -60 0
512 -62 60 0
-512 62 60 0
-512 -62 -60 0
-514 513 0
-514 58 0
-514 57 -60 0
-514 -57 60 0
514 -513 57 60 -58 0
514 -513 -57 -60 -58 0
516 513 -57 0
516 -513 57 0
-516 513 57 0
-516 -513 -57 0
515 60 -58 0
515 -60 58 0
-515 60 58 0
-515 -60 -58 0
-517 516 0
-517 56 0
-517 55 -58 0
-517 -55 58 0
517 -516 55 58 -56 0
517 -516 -55 -58 -56 0
519 516 -55 0
519 -516 55 0
-519 516 55 0
-519 -516 -55 0
518 58 -56 0
518 -58 56 0
-518 58 56 0
-518 -58 -56 0
-520 519 0
-520 54 0
-520 53 -56 0
-520 -53 56 0
520 -519 53 56 -54 0
520 -519 -53 -56 -54 0
522 519 -53 0
522 -519 53 0
-522 519 53 0
-522 -519 -53 0
521 56 -54 0
521 -56 54 0
-521 56 54 0
-521 -56 -54 0
-523 522 0
-523 52 0
-523 51 -54 0
-523 -51 54 0
523 -522 51 54 -52 0
523 -522 -51 -54 -52 0
525 522 -51 0
525 -522 51 0
-525 522 51 0
-525 -522 -51 0
524 54 -52 0
524 -54 52 0
-524 54 52 0
-524 -54 -52 0
-526 525 0
-526 50 0
-526 49 -52 0
-526 -49 52 0
526 -525 49 52 -50 0
526 -525 -49 -52 -50 0
528 525 -49 0
528 -525 49 0
-528 525 49 0
-528 -525 -49 0
527 52 -50 0
527 -52 50 0
-527 52 50 0
-527 -52 -50 0
-529 528 0
-529 48 0
-529 47 -50 0
-529 -47 50 0
529 -528 47 50 -48 0
529 -528 -47 -50 -48 0
531 528 -47 0
531 -528 47 0
-531 528 47 0
-531 -528 -47 0
530 50 -48 0
530 -50 48 0
-530 50 48 0
-530 -50 -48 0
-532 531 0
-532 46 0
-532 45 -48 0
-532 -45 48 0
532 -531 45 48 -46 0
532 -531 -45 -48 -46 0
534 531 -45 0
534 -531 45 0
-534 531 45 0
-534 -531 -45 0
533 48 -46 0
533 -48 46 0
-533 48 46 0
-533 -48 -46 0
-535 534 0
-535 44 0
-535 43 -46 0
-535 -43 46 0
535 -534 43 46 -44 0
535 -534 -43 -46 -44 0
537 534 -43 0
537 -534 43 0
-537 534 43 0
-537 -534 -43 0
536 46 -44 0
536 -46 44 0
-536 46 44 0
-536 -46 -44 0
-538 537 0
-538 42 0
-538 41 -44 0
-538 -41 44 0
538 -537 41 44 -42 0
538 -537 -41 -44 -42 0
540 537 -41 0
540 -537 41 0
-540 537 41 0
-540 -537 -41 0
539 44 -42 0
539 -44 42 0
-539 44 42 0
-539 -44 -42 0
-541 540 0
-541 40 0
-541 39 -42 0
-541 -39 42 0
541 -540 39 42 -40 0
541 -540 -39 -42 -40 0
543 540 -39 0
543 -540 39 0
-543 540 39 0
-543 -540 -39 0
542 42 -40 0
542 -42 40 0
-542 42 40 0
-542 -42 -40 0
-544 543 0
-544 38 0
-544 37 -40 0
-544 -37 40 0
544 -543 37 40 -38 0
544 -543 -37 -40 -38 0
546 543 -37 0
546 -543 37 0
-546 543 37 0
-546 -543 -37 0
545 40 -38 0
545 -40 38 0
-545 40 38 0
-545 -40 -38 0
-547 546 0
-547 36 0
-547 35 -38 0
-547 -35 38 0
547 -546 35 38 -36 0
547 -546 -35 -38 -36 0
549 546 -35 0
549 -546 35 0
-549 546 35 0
-549 -546 -35 0
548 38 -36 0
548 -38 36 0
-548 38 36 0
-548 -38 -36 0
-550 549 0
-550 34 0
-550 33 -36 0
-550 -33 36 0
550 -549 33 36 -34 0
550 -549 -33 -36 -34 0
552 549 -33 0
552 -549 33 0
-552 549 33 0
-552 -549 -33 0
551 36 -34 0
551 -36 34 0
-551 36 34 0
-551 -36 -34 0
-553 552 0
-553 32 0
-553 31 -34 0
-553 -31 34 0
553 -552 31 34 -32 0
553 -552 -31 -34 -32 0
555 552 -31 0
555 -552 31 0
-555 552 31 0
-555 -552 -31 0
554 34 -32 0
554 -34 32 0
-554 34 32 0
-554 -34 -32 0
-556 555 0
-556 30 0
-556 29 -32 0
-556 -29 32 0
556 -555 29 32 -30 0
556 -555 -29 -32 -30 0
558 555 -29 0
558 -555 29 0
-558 555 29 0
-558 -555 -29 0
557 32 -30 0
557 -32 30 0
-557 32 30 0
-557 -32 -30 0
-559 558 0
-559 28 0
-559 27 -30 0
-559 -27 30 0
559 -558 27 30 -28 0
559 -558 -27 -30 -28 0
561 558 -27 0
561 -558 27 0
-561 558 27 0
-561 -558 -27 0
560 30 -28 0
560 -30 28 0
-560 30 28 0
-560 -30 -28 0
-562 561 0
-562 26 0
-562 25 -28 0
-562 -25 28 0
562 -561 25 28 -26 0
562 -561 -25 -28 -26 0
564 561 -25 0
564 -561 25 0
-564 561 25 0
-564 -561 -25 0
563 28 -26 0
563 -28 26 0
-563 28 26 0
-563 -28 -26 0
-565 564 0
-565 24 0
-565 23 -26 0
-565 -23 26 0
565 -564 23 26 -24 0
565 -564 -23 -26 -24 0
567 564 -23 0
567 -564 23 0
-567 564 23 0
-567 -564 -23 0
566 26 -24 0
566 -26 24 0
-566 26 24 0
-566 -26 -24 0
-568 567 0
-568 22 0
-568 21 -24 0
-568 -21 24 0
568 -567 21 24 -22 0
568 -567 -21 -24 -22 0
570 567 -21 0
570 -567 21 0
-570 567 21 0
-570 -567 -21 0
569 24 -22 0
569 -24 22 0
-569 24 22 0
-569 -24 -22 0
-571 570 0
-571 20 0
-571 19 -22 0
-571 -19 22 0
571 -570 19 22 -20 0
571 -570 -19 -22 -20 0
573 570 -19 0
573 -570 19 0
-573 570 19 0
-573 -570 -19 0
572 22 -20 0
572 -22 20 0
-572 22 20 0
-572 -22 -20 0
-574 573 0
-574 18 0
-574 17 -20 0
-574 -17 20 0
574 -573 17 20 -18 0
574 -573 -17 -20 -18 0
576 573 -17 0
576 -573 17 0
-576 573 17 0
-576 -573 -17 0
575 20 -18 0
575 -20 18 0
-575 20 18 0
-575 -20 -18 0
-577 576 0
-577 16 0
-577 15 -18 0
-577 -15 18 0
577 -576 15 18 -16 0
577 -576 -15 -18 -16 0
579 576 -15 0
579 -576 15 0
-579 576 15 0
-579 -576 -15 0
578 18 -16 0
578 -18 16 0
-578 18 16 0
-578 -18 -16 0
-580 579 0
-580 14 0
-580 13 -16 0
-580 -13 16 0
580 -579 13 16 -14 0
580 -579 -13 -16 -14 0
582 579 -13 0
582 -579 13 0
-582 579 13 0
-582 -579 -13 0
581 16 -14 0
581 -16 14 0
-581 16 14 0
-581 -16 -14 0
-583 582 0
-583 12 0
-583 11 -14 0
-583 -11 14 0
583 -582 11 14 -12 0
583 -582 -11 -14 -12 0
585 582 -11 0
585 -582 11 0
-585 582 11 0
-585 -582 -11 0
584 14 -12 0
584 -14 12 0
-584 14 12 0
-584 -14 -12 0
-586 585 0
-586 10 0
-586 9 -12 0
-586 -9 12 0
586 -585 9 12 -10 0
586 -585 -9 -12 -10 0
588 585 -9 0
588 -585 9 0
-588 585 9 0
-588 -585 -9 0
587 12 -10 0
587 -12 10 0
-587 12 10 0
-587 -12 -10 0
-589 588 0
-589 8 0
-589 7 -10 0
-589 -7 10 0
589 -588 7 10 -8 0
589 -588 -7 -10 -8 0
591 588 -7 0
591 -588 7 0
-591 588 7 0
-591 -588 -7 0
590 10 -8 0
590 -10 8 0
-590 10 8 0
-590 -10 -8 0
-592 591 0
-592 6 0
-592 5 -8 0
-592 -5 8 0
592 -591 5 8 -6 0
592 -591 -5 -8 -6 0
594 591 -5 0
594 -591 5 0
-594 591 5 0
-594 -591 -5 0
593 8 -6 0
593 -8 6 0
-593 8 6 0
-593 -8 -6 0
-595 594 0
-595 4 0
-595 3 -6 0
-595 -3 6 0
595 -594 3 6 -4 0
595 -594 -3 -6 -4 0
597 594 -3 0
597 -594 3 0
-597 594 3 0
-597 -594 -3 0
596 6 -4 0
596 -6 4 0
-596 6 4 0
-596 -6 -4 0
-598 597 0
-598 2 0
-598 1 -4 0
-598 -1 4 0
598 -597 1 4 -2 0
598 -597 -1 -4 -2 0
600 597 -1 0
600 -597 1 0
-600 597 1 0
-600 -597 -1 0
599 4 -2 0
599 -4 2 0
-599 4 2 0
-599 -4 -2 0
-600 0
-597 0
-599 0
-594 0
-596 0
-591 0
-593 0
-588 0
-590 0
-585 0
-587 0
-582 0
-584 0
-579 0
-581 0
-576 0
-578 0
-573 0
-575 0
-570 0
-572 0
-567 0
-569 0
-564 0
-566 0
-561 0
-563 0
-558 0
-560 0
-555 0
-557 0
-552 0
-554 0
-549 0
-551 0
-546 0
-548 0
-543 0
-545 0
-540 0
-542 0
-537 0
-539 0
-534 0
-536 0
-531 0
-533 0
-528 0
-530 0
-525 0
-527 0
-522 0
-524 0
-519 0
-521 0
-516 0
-518 0
-513 0
-515 0
-510 0
-512 0
-507 0
-509 0
-504 0
-506 0
-501 0
-503 0
-498 0
-500 0
-495 0
-497 0
-492 0
-494 0
-489 0
-491 0
-486 0
-488 0
-483 0
-485 0
-480 0
-482 0
-477 0
-479 0
-474 0
-476 0
-471 0
-473 0
-468 0
-470 0
-465 0
-467 0
-462 0
-464 0
-459 0
-461 0
-456 0
-458 0
-453 0
-455 0
-450 0
-452 0
-447 0
-449 0
-444 0
-446 0
-441 0
-443 0
-438 0
-440 0
-435 0
-437 0
-432 0
-434 0
-429 0
-431 0
-426 0
-428 0
-423 0
-425 0
-420 0
-422 0
-417 0
-419 0
-414 0
-416 0
-411 0
-413 0
-408 0
-410 0
-405 0
-407 0
-402 0
-404 0
-399 0
-401 0
-396 0
-398 0
-393 0
-395 0
-390 0
-392 0
-387 0
-389 0
-384 0
-386 0
-381 0
-383 0
-378 0
-380 0
-375 0
-377 0
-372 0
-374 0
-369 0
-371 0
-366 0
-368 0
-363 0
-365 0
-360 0
-362 0
-357 0
-359 0
-354 0
-356 0
-351 0
-353 0
-348 0
-350 0
-345 0
-347 0
-342 0
-344 0
-339 0
-341 0
-336 0
-338 0
-333 0
-335 0
-330 0
-332 0
-327 0
-329 0
-324 0
-326 0
-321 0
-323 0
-318 0
-320 0
-315 0
-317 0
-312 0
-314 0
-309 0
-311 0
-306 0
-308 0
-303 0
-305 0
-300 0
-302 0
-297 0
-299 0
-294 0
-296 0
-291 0
-293 0
-288 0
-290 0
-285 0
-287 0
-282 0
-284 0
-279 0
-281 0
-276 0
-278 0
-273 0
-275 0
-270 0
-272 0
-267 0
-269 0
-264 0
-266 0
-261 0
-263 0
-258 0
-260 0
-255 0
-257 0
-252 0
-254 0
-249 0
-251 0
-242 0
-248 0
